min: X;

x_1 <= 11;
x_2 <= 6;
x_3 <= 2.04;
x_4 <= 11;
x_5 <= 20;
x_1 >= 2.5;
x_2 >= 1.5;
x_3 >= 1.25;
x_4 >= 4;
x_5 >= 10;
7.385764 x_1 - 7.876528 x_2 + 0.790452 x_3 - 0.917952 x_4 + 0.510468 x_5 - 19.96657 <= X;
-7.385764 x_1 + 7.876528 x_2 - 0.790452 x_3 + 0.917952 x_4 - 0.510468 x_5 + 19.96657 <= X;
